# Objective value = 4
SL0_r1 0
SH0_r1 0
SL1_r1 0
SH1_r1 0
SL2_r1 0
SH2_r1 0
SL3_r1 0
SH3_r1 0
SL4_r1 0
SH4_r1 0
SL5_r1 0
SH5_r1 0
SL6_r1 0
SH6_r1 1
SL7_r1 0
SH7_r1 0
SL8_r1 0
SH8_r1 0
SL9_r1 0
SH9_r1 0
SL10_r1 0
SH10_r1 0
SL11_r1 0
SH11_r1 0
SL12_r1 0
SH12_r1 0
SL13_r1 0
SH13_r1 0
SL14_r1 0
SH14_r1 0
SL15_r1 0
SH15_r1 0
SL0_r2 0
SH0_r2 0
SL1_r2 0
SH1_r2 0
SL2_r2 0
SH2_r2 0
SL3_r2 0
SH3_r2 0
SL4_r2 0
SH4_r2 0
SL5_r2 0
SH5_r2 0
SL6_r2 0
SH6_r2 0
SL7_r2 0
SH7_r2 0
SL8_r2 0
SH8_r2 0
SL9_r2 0
SH9_r2 1
SL10_r2 0
SH10_r2 0
SL11_r2 0
SH11_r2 0
SL12_r2 0
SH12_r2 0
SL13_r2 0
SH13_r2 0
SL14_r2 0
SH14_r2 0
SL15_r2 0
SH15_r2 0
x0_r1 0
x1_r1 0
x2_r1 0
x3_r1 0
x4_r1 0
x5_r1 0
x6_r1 0
x7_r1 0
x8_r1 0
x9_r1 0
x10_r1 0
x11_r1 0
x12_r1 0
x13_r1 0
x14_r1 0
x15_r1 0
x16_r1 0
x17_r1 0
x18_r1 0
x19_r1 0
x20_r1 0
x21_r1 0
x22_r1 0
x23_r1 0
x24_r1 1
x25_r1 1
x26_r1 0
x27_r1 1
x28_r1 0
x29_r1 0
x30_r1 0
x31_r1 0
x32_r1 0
x33_r1 0
x34_r1 0
x35_r1 0
x36_r1 0
x37_r1 0
x38_r1 0
x39_r1 0
x40_r1 0
x41_r1 0
x42_r1 0
x43_r1 0
x44_r1 0
x45_r1 0
x46_r1 0
x47_r1 0
x48_r1 0
x49_r1 0
x50_r1 0
x51_r1 0
x52_r1 0
x53_r1 0
x54_r1 0
x55_r1 0
x56_r1 0
x57_r1 0
x58_r1 0
x59_r1 0
x60_r1 0
x61_r1 0
x62_r1 0
x63_r1 0
y0_r1 0
y1_r1 0
y2_r1 0
y3_r1 0
y4_r1 0
y5_r1 0
y6_r1 0
y7_r1 0
y8_r1 0
y9_r1 0
y10_r1 0
y11_r1 0
y12_r1 0
y13_r1 0
y14_r1 0
y15_r1 0
y16_r1 0
y17_r1 0
y18_r1 0
y19_r1 0
y20_r1 0
y21_r1 0
y22_r1 0
y23_r1 0
y24_r1 0
y25_r1 0
y26_r1 1
y27_r1 0
y28_r1 0
y29_r1 0
y30_r1 0
y31_r1 0
y32_r1 0
y33_r1 0
y34_r1 0
y35_r1 0
y36_r1 0
y37_r1 0
y38_r1 0
y39_r1 0
y40_r1 0
y41_r1 0
y42_r1 0
y43_r1 0
y44_r1 0
y45_r1 0
y46_r1 0
y47_r1 0
y48_r1 0
y49_r1 0
y50_r1 0
y51_r1 0
y52_r1 0
y53_r1 0
y54_r1 0
y55_r1 0
y56_r1 0
y57_r1 0
y58_r1 0
y59_r1 0
y60_r1 0
y61_r1 0
y62_r1 0
y63_r1 0
y0_r2 0
y1_r2 0
y2_r2 0
y3_r2 0
y4_r2 0
y5_r2 0
y6_r2 0
y7_r2 0
y8_r2 0
y9_r2 0
y10_r2 0
y11_r2 0
y12_r2 0
y13_r2 0
y14_r2 0
y15_r2 0
y16_r2 0
y17_r2 0
y18_r2 0
y19_r2 0
y20_r2 0
y21_r2 0
y22_r2 0
y23_r2 0
y24_r2 0
y25_r2 0
y26_r2 0
y27_r2 0
y28_r2 0
y29_r2 0
y30_r2 0
y31_r2 0
y32_r2 0
y33_r2 0
y34_r2 0
y35_r2 0
y36_r2 0
y37_r2 1
y38_r2 0
y39_r2 1
y40_r2 0
y41_r2 0
y42_r2 0
y43_r2 0
y44_r2 0
y45_r2 0
y46_r2 0
y47_r2 0
y48_r2 0
y49_r2 0
y50_r2 0
y51_r2 0
y52_r2 0
y53_r2 0
y54_r2 0
y55_r2 0
y56_r2 0
y57_r2 0
y58_r2 0
y59_r2 0
y60_r2 0
y61_r2 0
y62_r2 0
y63_r2 0
